; benchmark generated from python API
(set-info :status unknown)
(declare-datatypes ((RealState 0)) (((RMk1 (rval1 Real)) (RMk2 (rval2 Real)))))
 (assert
 (exists ((|v11:0_st| RealState) (val!6260 Real) )(exists ((|v10:1_st| RealState) (val!6261 Real) )(exists ((|v9:2_st| RealState) (val!6262 Real) )(exists ((|v8:3_st| RealState) (val!6263 Real) )(forall ((|v7:4| Real) )(forall ((|v6:5| Real) )(forall ((|v5:6| Real) )(forall ((|v4:7| Real) )(exists ((|v3:8_st| RealState) (val!6264 Real) )(exists ((|v2:9_st| RealState) (val!6265 Real) )(exists ((|v1:10_st| RealState) (val!6266 Real) )(exists ((|v0:11_st| RealState) (val!6267 Real) )(let ((?x2572 (- 4.0)))
 (let ((?x504 (+ (+ (* 19.0 (rval2 |v2:9_st|)) (* 13.0 |v5:6|)) (* 13.0 (rval2 |v8:3_st|)))))
 (let ((?x3138 (rval2 |v1:10_st|)))
 (let ((?x1774 (- 11.0)))
 (let ((?x70 (* ?x1774 ?x3138)))
 (let ((?x1773 (+ (+ (+ (* (- 15.0) |v5:6|) (* 12.0 |v7:4|)) ?x70) (* (- 8.0) (rval2 |v3:8_st|)))))
 (let (($x2094 (and (<= ?x1773 6.0) (<= (+ ?x504 (* (- 5.0) (rval2 |v8:3_st|))) ?x2572))))
 (let ((?x1642 (- 18.0)))
 (let ((?x273 (rval2 |v2:9_st|)))
 (let ((?x1703 (* 4.0 ?x273)))
 (let ((?x721 (rval2 |v0:11_st|)))
 (let ((?x2581 (* 14.0 ?x721)))
 (let ((?x1295 (+ (+ (+ (* (- 5.0) (rval2 |v9:2_st|)) (* (- 2.0) ?x3138)) ?x2581) ?x1703)))
 (let ((?x3147 (rval2 |v9:2_st|)))
 (let ((?x1040 (* 16.0 ?x3147)))
 (let ((?x1315 (+ (+ (+ (* ?x1642 (rval2 |v10:1_st|)) (* 4.0 (rval2 |v11:0_st|))) (* ?x1774 ?x721)) ?x1040)))
 (let ((?x2946 (- 12.0)))
 (let ((?x3070 (* ?x2946 ?x3147)))
 (let ((?x1194 (+ (+ (+ (* (- 8.0) |v7:4|) (* 6.0 ?x3147)) (* 0.0 ?x273)) ?x3070)))
 (let ((?x1633 (- 7.0)))
 (let ((?x2206 (+ (+ (* (- 16.0) (rval2 |v11:0_st|)) (* 20.0 ?x3138)) (* 3.0 (rval2 |v10:1_st|)))))
 (let ((?x475 (+ (+ (+ (* (- 10.0) |v4:7|) (* 2.0 |v5:6|)) (* (- 16.0) |v4:7|)) (* (- 9.0) ?x3138))))
 (let ((?x2096 (- 10.0)))
 (let ((?x2243 (* ?x2096 ?x273)))
 (let ((?x1722 (+ (+ (+ (* 5.0 (rval2 |v10:1_st|)) (* ?x1642 |v6:5|)) (* 5.0 |v7:4|)) ?x2243)))
 (let (($x798 (and (and (<= ?x1722 3.0) (<= ?x475 15.0)) (and (<= (+ ?x2206 (* 11.0 (rval2 |v10:1_st|))) ?x1633) (<= ?x1194 19.0)))))
 (let ((?x599 (- 6.0)))
 (let ((?x1994 (+ (+ (+ (* (- 13.0) ?x3138) (* (- 20.0) ?x721)) (* 16.0 ?x3138)) (* 6.0 ?x3138))))
 (let ((?x2746 (+ (+ (* ?x2096 ?x3138) (* (- 8.0) (rval2 |v11:0_st|))) (* (- 19.0) (rval2 |v11:0_st|)))))
 (let ((?x2727 (* ?x2946 |v5:6|)))
 (let (($x1884 (<= (+ (+ (+ (* 12.0 |v5:6|) (* 16.0 |v4:7|)) (* ?x1642 ?x721)) ?x2727) ?x2096)))
 (let ((?x1415 (- 15.0)))
 (let ((?x2480 (* 13.0 |v7:4|)))
 (let ((?x206 (+ (+ (+ (* 3.0 |v6:5|) (* 17.0 |v6:5|)) (* 15.0 (rval2 |v8:3_st|))) ?x2480)))
 (let (($x100 (and (and (<= ?x206 ?x1415) $x1884) (and (<= (+ ?x2746 (* (- 8.0) ?x721)) 18.0) (<= ?x1994 ?x599)))))
 (let ((?x3494 (+ (+ (+ (* 6.0 ?x273) (* (- 20.0) ?x3138)) (* ?x2946 (rval2 |v3:8_st|))) (* (- 19.0) |v5:6|))))
 (let ((?x997 (* 7.0 ?x721)))
 (let ((?x396 (+ (+ (+ (* 20.0 ?x3147) (* 20.0 (rval2 |v11:0_st|))) (* 0.0 ?x3138)) ?x997)))
 (let ((?x855 (* 19.0 |v5:6|)))
 (let (($x1497 (<= (+ (+ (+ |v7:4| (* (- 9.0) (rval2 |v11:0_st|))) (* 20.0 ?x721)) ?x855) 14.0)))
 (let ((?x733 (* 12.0 |v5:6|)))
 (let ((?x2550 (+ (+ (+ (* 6.0 (rval2 |v3:8_st|)) (* (- 5.0) (rval2 |v11:0_st|))) ?x733) ?x2581)))
 (let (($x557 (and (and (<= ?x2550 14.0) $x1497) (and (<= ?x396 20.0) (<= ?x3494 16.0)))))
 (let (($x2095 (and (and $x557 $x100) (and $x798 (and (and (<= ?x1315 11.0) (<= ?x1295 ?x1642)) $x2094)))))
 (let (($x972 (<= (+ (+ (+ |v5:6| (* 6.0 ?x721)) (* ?x599 |v6:5|)) (* (- 8.0) ?x273)) 0.0)))
 (let ((?x2387 (- 1.0)))
 (let ((?x2250 (rval2 |v10:1_st|)))
 (let ((?x2280 (* 9.0 ?x2250)))
 (let ((?x563 (+ (+ (* (- 3.0) ?x2250) (* (- 13.0) ?x273)) (* (- 5.0) (rval2 |v3:8_st|)))))
 (let ((?x1709 (- 16.0)))
 (let ((?x891 (* ?x1709 ?x3147)))
 (let (($x2261 (<= (+ (+ (+ (* ?x599 ?x3147) (* 10.0 |v6:5|)) (* 3.0 |v4:7|)) ?x891) ?x1642)))
 (let ((?x2749 (- 17.0)))
 (let (($x1042 (<= (+ (+ (+ (* ?x2387 ?x3147) (* 9.0 ?x273)) (* ?x2946 |v7:4|)) ?x70) ?x2749)))
 (let ((?x1477 (- 5.0)))
 (let ((?x452 (+ (+ (+ (* 12.0 |v7:4|) (* 14.0 ?x3147)) (* ?x1709 (rval2 |v3:8_st|))) ?x3070)))
 (let ((?x220 (rval2 |v11:0_st|)))
 (let ((?x463 (* 9.0 ?x220)))
 (let (($x1400 (<= (+ (+ (+ (* 10.0 |v6:5|) (* (- 2.0) ?x2250)) (* ?x2096 ?x2250)) ?x463) 16.0)))
 (let ((?x1527 (* 2.0 ?x3147)))
 (let (($x96 (<= (+ (+ (+ (* (- 8.0) ?x3147) (* ?x2572 |v4:7|)) (* 6.0 |v4:7|)) ?x1527) 18.0)))
 (let ((?x2290 (* 11.0 |v7:4|)))
 (let (($x2647 (<= (+ (+ (+ (* 18.0 |v7:4|) (* 0.0 ?x2250)) (* 6.0 ?x721)) ?x2290) 3.0)))
 (let (($x441 (and (and (and $x2647 $x96) (and $x1400 (<= ?x452 ?x1477))) (and (and $x1042 $x2261) (and (<= (+ ?x563 ?x2280) ?x2387) $x972)))))
 (let ((?x3071 (rval2 |v8:3_st|)))
 (let ((?x1806 (+ (+ (+ (* 16.0 ?x2250) (* 0.0 |v6:5|)) (* (- 2.0) ?x3071)) ?x3071)))
 (let ((?x1319 (- 13.0)))
 (let ((?x1959 (+ (+ (+ (* 4.0 |v4:7|) (* (- 20.0) ?x2250)) (* ?x1709 |v7:4|)) (* 0.0 ?x3071))))
 (let ((?x3310 (+ (+ (+ (* 15.0 ?x3147) (* 0.0 ?x2250)) (* ?x1633 ?x721)) (* (- 2.0) ?x3147))))
 (let ((?x1008 (+ (+ (+ (* 15.0 ?x721) (* 11.0 ?x3071)) (* 8.0 |v6:5|)) (* ?x1642 ?x3071))))
 (let (($x3474 (and (and (<= ?x1008 ?x1709) (<= ?x3310 ?x1709)) (and (<= ?x1959 ?x1319) (<= ?x1806 18.0)))))
 (let ((?x1054 (* ?x1477 |v5:6|)))
 (let (($x507 (<= (+ (+ (+ (* ?x2946 ?x273) (* 12.0 ?x220)) (* 6.0 ?x721)) ?x1054) ?x2946)))
 (let (($x1067 (<= (+ (+ (+ (* ?x2096 ?x721) (* 10.0 |v7:4|)) (* 5.0 ?x3147)) |v6:5|) 11.0)))
 (let ((?x2398 (+ (+ (+ (* ?x1415 ?x220) (* 16.0 |v7:4|)) (* (- 19.0) (rval2 |v3:8_st|))) (* (- 19.0) |v4:7|))))
 (let ((?x2315 (* ?x1774 |v6:5|)))
 (let (($x1351 (<= (+ (+ (+ (* ?x1319 ?x3071) (* ?x2096 |v5:6|)) (* 11.0 ?x220)) ?x2315) ?x2096)))
 (let (($x1981 (and (and (and (and $x1351 (<= ?x2398 7.0)) (and $x1067 $x507)) $x3474) $x441)))
 (let ((?x961 (- 2.0)))
 (let ((?x2068 (* 16.0 |v4:7|)))
 (let ((?x3295 (+ (+ (+ (* 20.0 ?x721) (* ?x2572 (rval2 |v3:8_st|))) (* ?x1633 ?x220)) ?x2068)))
 (let ((?x1964 (+ (+ (+ (* (- 14.0) ?x273) (* (- 20.0) ?x220)) (* 10.0 ?x220)) (* ?x2572 ?x3138))))
 (let ((?x1965 (* 3.0 ?x721)))
 (let ((?x1675 (+ (+ (+ (* (- 20.0) ?x3147) (* 19.0 ?x3147)) (* 20.0 (rval2 |v3:8_st|))) ?x1965)))
 (let (($x2764 (<= (+ (+ (+ (* ?x1774 |v5:6|) ?x2581) (* ?x2096 ?x220)) (* 7.0 ?x3147)) 1.0)))
 (let (($x3055 (and (and $x2764 (<= ?x1675 2.0)) (and (<= ?x1964 6.0) (<= ?x3295 ?x961)))))
 (let ((?x282 (+ (+ (+ (* 20.0 ?x721) (* ?x1319 (rval2 |v3:8_st|))) (* ?x2749 ?x721)) (* (- 20.0) |v4:7|))))
 (let (($x347 (<= (+ (+ (+ (* 10.0 ?x3071) (* 3.0 |v5:6|)) (* 4.0 ?x220)) ?x2727) 20.0)))
 (let ((?x1260 (* 15.0 |v7:4|)))
 (let (($x3429 (<= (+ (+ (+ (* 16.0 ?x3138) (* ?x2749 ?x220)) (* 16.0 |v7:4|)) ?x1260) ?x1774)))
 (let ((?x3044 (- 20.0)))
 (let (($x653 (<= (+ (+ (+ ?x70 (* 20.0 ?x3147)) |v7:4|) (* (- 14.0) ?x721)) ?x3044)))
 (let ((?x605 (+ (+ (+ (* ?x1415 |v6:5|) (* ?x599 |v5:6|)) (* ?x3044 |v6:5|)) (* (- 14.0) ?x2250))))
 (let ((?x2265 (* 8.0 ?x721)))
 (let (($x148 (<= (+ (+ (+ (* 8.0 ?x220) (* ?x1633 ?x3071)) (* 13.0 ?x3147)) ?x2265) 5.0)))
 (let ((?x1217 (* 15.0 ?x220)))
 (let (($x1290 (<= (+ (+ (+ ?x733 (* ?x1415 (rval2 |v3:8_st|))) (* 16.0 ?x3071)) ?x1217) 8.0)))
 (let (($x1813 (<= (+ (+ (+ (* ?x2387 (rval2 |v3:8_st|)) (* ?x961 ?x3138)) ?x2290) ?x1217) 12.0)))
 (let (($x805 (<= (+ (+ (+ (* ?x1633 ?x2250) (* 15.0 ?x3147)) (* 16.0 ?x2250)) ?x855) 4.0)))
 (let ((?x2503 (- 3.0)))
 (let ((?x3036 (* ?x2503 ?x721)))
 (let (($x2505 (<= (+ (+ (+ (* ?x1477 ?x3138) (* ?x2572 ?x273)) (* ?x599 ?x2250)) ?x3036) 18.0)))
 (let (($x1280 (and (<= (+ (+ (+ (* ?x2387 |v6:5|) ?x1527) ?x2243) (* 11.0 |v4:7|)) 11.0) (<= (+ (+ (+ ?x2315 (* 0.0 ?x3138)) (* ?x2749 |v6:5|)) ?x3071) 6.0))))
 (let (($x1434 (or (and $x1280 (and $x2505 $x805)) (and (and $x1813 $x1290) (and $x148 (<= ?x605 ?x2096))))))
 (let (($x1535 (and $x1434 (and (or (and $x653 $x3429) (and $x347 (<= ?x282 13.0))) $x3055))))
 (let ((?x2495 (* 4.0 ?x721)))
 (let ((?x1713 (+ (+ (+ (* 4.0 |v6:5|) (* 15.0 (rval2 |v3:8_st|))) (* 19.0 ?x220)) ?x2495)))
 (let ((?x494 (+ (+ (+ (* 19.0 ?x3071) (* ?x2387 |v5:6|)) (* ?x2749 (rval2 |v3:8_st|))) (* 12.0 ?x3147))))
 (let (($x627 (<= (+ (+ (+ (* 12.0 ?x2250) (* 10.0 ?x2250)) ?x891) (* 5.0 ?x3071)) 10.0)))
 (let ((?x20 (+ (+ (+ (* 17.0 ?x220) (* 2.0 (rval2 |v3:8_st|))) (* (- 9.0) |v4:7|)) ?x2243)))
 (let (($x906 (and (and (<= ?x20 ?x599) $x627) (and (<= ?x494 14.0) (<= ?x1713 ?x2946)))))
 (let ((?x2236 (+ (+ (+ (* ?x2946 ?x721) (* ?x1774 ?x273)) (* ?x2096 |v6:5|)) (* ?x599 (rval2 |v3:8_st|)))))
 (let ((?x1253 (* ?x2946 ?x721)))
 (let (($x1734 (<= (+ (+ (+ (* ?x2749 ?x721) (* ?x2503 |v6:5|)) (* 17.0 ?x721)) ?x1253) ?x1477)))
 (let ((?x729 (* 5.0 |v7:4|)))
 (let (($x312 (<= (+ (+ (+ (* ?x1642 ?x220) (* ?x1642 |v5:6|)) (* 4.0 ?x2250)) ?x729) 0.0)))
 (let ((?x1514 (+ (+ (+ (* 14.0 ?x3138) (* 16.0 ?x3138)) (* ?x2946 ?x273)) (* ?x2572 ?x3147))))
 (let (($x2209 (and (and (and (<= ?x1514 ?x1415) $x312) (and $x1734 (<= ?x2236 8.0))) $x906)))
 (let (($x2682 (<= (+ (+ (+ (* ?x1415 ?x2250) (* 4.0 |v5:6|)) ?x3147) (* (- 19.0) |v6:5|)) ?x1642)))
 (let ((?x3281 (* 18.0 ?x220)))
 (let (($x1320 (<= (+ (+ (+ (* ?x961 |v4:7|) (* 15.0 |v4:7|)) (* ?x3044 ?x273)) ?x3281) ?x2096)))
 (let ((?x2141 (* 7.0 ?x273)))
 (let ((?x1056 (+ (+ (+ (* 0.0 |v5:6|) (* ?x2096 |v5:6|)) (* ?x1709 (rval2 |v3:8_st|))) ?x2141)))
 (let (($x2913 (<= (+ (+ (+ ?x1965 (* 15.0 (rval2 |v3:8_st|))) (* 9.0 |v4:7|)) ?x3036) 18.0)))
 (let ((?x940 (* 2.0 |v5:6|)))
 (let (($x2818 (<= (+ (+ (+ (* 13.0 |v4:7|) (* 15.0 |v5:6|)) (* 19.0 |v6:5|)) ?x940) 17.0)))
 (let ((?x196 (+ (+ (+ (* 16.0 ?x220) (* ?x1642 |v6:5|)) (* 0.0 |v4:7|)) (* ?x961 ?x220))))
 (let ((?x2027 (* 9.0 |v6:5|)))
 (let (($x1475 (<= (+ (+ (+ (* 2.0 |v4:7|) (* 18.0 ?x273)) (* 13.0 ?x273)) ?x2027) ?x2503)))
 (let ((?x496 (- 19.0)))
 (let (($x808 (<= (+ (+ (+ (* ?x1709 ?x3071) (* ?x3044 ?x220)) ?x3036) (* ?x2749 ?x2250)) ?x496)))
 (let (($x2102 (and (and (and $x808 $x1475) (and (<= ?x196 5.0) $x2818)) (and (and $x2913 (<= ?x1056 ?x1642)) (and $x1320 $x2682)))))
 (let (($x1161 (not (= |v0:11_st| (RMk1 val!6267)))))
 (let (($x1272 (not (= |v1:10_st| (RMk1 val!6266)))))
 (let (($x1346 (not (= |v2:9_st| (RMk1 val!6265)))))
 (let (($x2005 (not (= |v3:8_st| (RMk1 val!6264)))))
 (let (($x1367 (not (= |v8:3_st| (RMk1 val!6263)))))
 (let (($x3058 (not (= |v9:2_st| (RMk1 val!6262)))))
 (let (($x1294 (not (= |v10:1_st| (RMk1 val!6261)))))
 (let (($x2915 (not (= |v11:0_st| (RMk1 val!6260)))))
 (and $x2915 $x1294 $x3058 $x1367 $x2005 $x1346 $x1272 $x1161 (and (and (and $x2102 $x2209) $x1535) (and $x1981 $x2095))))))))))))))))))))))))))))))))))))))))))))))))))))))))))))))))))))))))))))))))))))))))))))))))))))))))))))))))))))))))))))))))))))))))))))))))
 )
 )
 )
 )
 )
 )
 )
 )
 )
 )
 )
 )
(check-sat)
